57
42
31
30
23
70
193
21
511
825
205
1005
30
69
63
87
48
147
81
213
0
32
184
427
25
65
74
608
108
74
104
145
36
74
78
194
44
71
70
25
73
74
51
0
80
712
98
131
45
34
68
85
106
206
163
43
80
73
49
293
167
35
32
72
218
22
74
32
36
83
76
40
50
71
58
233
31
50
0
0
16
65
85
101
96
205
48
422
1035
0
33
44
53
37
90
20
104
50
0
46
